(set-logic HORN)
(declare-fun inv ((_ BitVec 8) (_ BitVec 8) (_ BitVec 8) ) Bool)
(assert (forall ((n (_ BitVec 8)) (j (_ BitVec 8)) (k (_ BitVec 8))) 
       (=> ( and ( = j (_ bv0 8) ) ( bvugt n (_ bv0 8) ) ( bvugt k n ) ) (inv n j k))))
(assert (forall ((n (_ BitVec 8)) (j (_ BitVec 8)) (k (_ BitVec 8)) (n! (_ BitVec 8)) (j! (_ BitVec 8)) (k! (_ BitVec 8))) 
       (=> (and (inv n j k) ( or ( and ( bvult j n ) ( = j! ( bvadd j (_ bv1 8) ) ) ( = k! ( bvsub k (_ bv1 8) ) ) ( = n! n ) ) ( and ( bvuge j n ) ( = j! j ) ( = k! k ) ( = n! n ) ) )) (inv n! j! k!))))
(assert (forall ((n (_ BitVec 8)) (j (_ BitVec 8)) (k (_ BitVec 8))) 
       (=> (inv n j k) ( => ( not ( bvult j n ) ) ( bvuge k (_ bv0 8) ) ))))
(check-sat)
